Problem:    Sfilata
Rows:       11
Columns:    81 (81 integer, 81 binary)
Non-zeros:  115
Status:     INTEGER OPTIMAL
Objective:  z = 136 (MAXimum)

   No.   Row name        Activity     Lower bound   Upper bound
------ ------------    ------------- ------------- -------------
     1 sensoUnico[0]
                                   1             1             = 
     2 sensoUnico[1]
                                   1             1             = 
     3 sensoUnico[2]
                                   1             1             = 
     4 sensoUnico[3]
                                   1             1             = 
     5 sensoUnico[4]
                                   1             1             = 
     6 sensoUnico[5]
                                   1             1             = 
     7 sensoUnico[6]
                                   1             1             = 
     8 sensoUnico[7]
                                   1             1             = 
     9 sensoUnico[8]
                                   1             1             = 
    10 z                         136                             
    11 z1                       1950                             

   No. Column name       Activity     Lower bound   Upper bound
------ ------------    ------------- ------------- -------------
     1 x[0,1]       *              0             0             1 
     2 x[0,2]       *              0             0             1 
     3 x[0,3]       *              1             0             1 
     4 x[0,4]       *              0             0             1 
     5 x[0,5]       *              0             0             1 
     6 x[0,6]       *              0             0             1 
     7 x[0,7]       *              0             0             1 
     8 x[0,8]       *              0             0             1 
     9 x[0,9]       *              0             0             1 
    10 x[1,1]       *              0             0             1 
    11 x[1,2]       *              0             0             1 
    12 x[1,3]       *              0             0             1 
    13 x[1,4]       *              1             0             1 
    14 x[1,5]       *              0             0             1 
    15 x[1,6]       *              0             0             1 
    16 x[1,7]       *              0             0             1 
    17 x[1,8]       *              0             0             1 
    18 x[1,9]       *              0             0             1 
    19 x[2,1]       *              0             0             1 
    20 x[2,2]       *              0             0             1 
    21 x[2,3]       *              1             0             1 
    22 x[2,4]       *              0             0             1 
    23 x[2,5]       *              0             0             1 
    24 x[2,6]       *              0             0             1 
    25 x[2,7]       *              0             0             1 
    26 x[2,8]       *              0             0             1 
    27 x[2,9]       *              0             0             1 
    28 x[3,1]       *              0             0             1 
    29 x[3,2]       *              0             0             1 
    30 x[3,3]       *              0             0             1 
    31 x[3,4]       *              0             0             1 
    32 x[3,5]       *              0             0             1 
    33 x[3,6]       *              1             0             1 
    34 x[3,7]       *              0             0             1 
    35 x[3,8]       *              0             0             1 
    36 x[3,9]       *              0             0             1 
    37 x[4,1]       *              0             0             1 
    38 x[4,2]       *              0             0             1 
    39 x[4,3]       *              0             0             1 
    40 x[4,4]       *              0             0             1 
    41 x[4,5]       *              1             0             1 
    42 x[4,6]       *              0             0             1 
    43 x[4,7]       *              0             0             1 
    44 x[4,8]       *              0             0             1 
    45 x[4,9]       *              0             0             1 
    46 x[5,1]       *              0             0             1 
    47 x[5,2]       *              0             0             1 
    48 x[5,3]       *              0             0             1 
    49 x[5,4]       *              1             0             1 
    50 x[5,5]       *              0             0             1 
    51 x[5,6]       *              0             0             1 
    52 x[5,7]       *              0             0             1 
    53 x[5,8]       *              0             0             1 
    54 x[5,9]       *              0             0             1 
    55 x[6,1]       *              0             0             1 
    56 x[6,2]       *              0             0             1 
    57 x[6,3]       *              0             0             1 
    58 x[6,4]       *              0             0             1 
    59 x[6,5]       *              0             0             1 
    60 x[6,6]       *              0             0             1 
    61 x[6,7]       *              0             0             1 
    62 x[6,8]       *              0             0             1 
    63 x[6,9]       *              1             0             1 
    64 x[7,1]       *              0             0             1 
    65 x[7,2]       *              0             0             1 
    66 x[7,3]       *              0             0             1 
    67 x[7,4]       *              0             0             1 
    68 x[7,5]       *              0             0             1 
    69 x[7,6]       *              0             0             1 
    70 x[7,7]       *              0             0             1 
    71 x[7,8]       *              0             0             1 
    72 x[7,9]       *              1             0             1 
    73 x[8,1]       *              0             0             1 
    74 x[8,2]       *              0             0             1 
    75 x[8,3]       *              0             0             1 
    76 x[8,4]       *              0             0             1 
    77 x[8,5]       *              0             0             1 
    78 x[8,6]       *              0             0             1 
    79 x[8,7]       *              0             0             1 
    80 x[8,8]       *              0             0             1 
    81 x[8,9]       *              1             0             1 

Integer feasibility conditions:

KKT.PE: max.abs.err = 0.00e+000 on row 0
        max.rel.err = 0.00e+000 on row 0
        High quality

KKT.PB: max.abs.err = 0.00e+000 on row 0
        max.rel.err = 0.00e+000 on row 0
        High quality

End of output
